[693, 719, 701, 665, 680, 693, 695, 684, 687, 674, 1377, 1353, 1386, 1399, 1394, 1340, 1347, 1360, 1361, 1382, 2682, 2707, 2690, 2707, 2696, 2748, 2662, 2732, 2710, 2724, 5403, 5428, 5395, 5388, 5477, 5418, 5411, 5365, 5385, 5363, 10712, 10712, 10766, 10653, 10701, 10676, 10755, 10773, 10764, 10710]
